n = 5; m = 12;
d = [| 1,0,2,5 % (xoffset,yoffset,xsize,ysize)
     | 3,4,1,1
     | 0,3,1,1
     | 1,4,2,2
     | 0,1,1,3 % shared by blocks 2 & 3
     | 1,0,4,4
     | 1,5,1,2
     | 1,0,3,5
     | 4,1,1,4
     | 0,0,1,3
     | 1,0,3,4
     | 0,0,4,5 |];
shape = [ {1,2,3}, {4,5,6}, {5,7,8,9}, {12}, {10,11} ];
h = 9; maxl = 16;